50
2	4	5	9	10	11	13	14	15	17	18	20	25	27	29	41	45	46	0
1	3	5	7	8	11	12	14	18	24	25	26	27	28	32	37	43	44	46	0
2	5	6	14	20	21	22	23	24	25	27	28	29	31	33	36	37	50	0
1	5	6	8	12	15	17	19	23	26	28	32	34	41	42	45	46	47	49	50	0
1	2	3	4	7	9	11	14	15	17	20	21	22	24	26	32	33	35	36	41	45	46	47	48	49	50	0
3	4	7	9	10	11	14	16	18	19	20	22	23	25	26	27	28	33	35	36	40	42	45	46	47	48	0
2	5	6	9	11	12	13	15	16	18	20	23	24	25	33	34	46	48	0
2	4	11	13	16	17	19	21	25	26	27	28	33	35	38	45	46	47	48	49	50	0
1	5	6	7	10	12	13	18	24	26	28	30	32	41	44	45	47	0
1	6	9	13	16	18	20	21	23	25	26	27	33	34	37	38	40	41	42	44	46	50	0
1	2	5	6	7	8	12	13	17	20	24	26	30	32	33	34	40	45	48	0
2	4	7	9	11	14	15	20	23	24	25	26	28	33	35	39	41	42	48	0
1	7	8	9	10	11	14	18	19	21	25	26	27	28	29	30	35	38	39	41	49	0
1	2	3	5	6	12	13	17	20	24	26	28	30	34	38	40	41	43	44	45	47	48	0
1	4	5	7	12	17	20	25	28	29	31	35	38	46	47	49	50	0
6	7	8	10	20	25	26	28	30	34	36	38	41	0
1	4	5	8	11	14	15	20	21	24	28	29	31	38	39	46	0
1	2	6	7	9	10	13	19	22	23	24	25	27	28	29	30	35	36	40	47	48	0
4	6	8	13	18	24	25	26	27	28	31	34	35	39	40	43	45	46	47	50	0
1	3	5	6	7	10	11	12	14	15	16	17	23	27	28	32	33	34	35	36	43	45	47	48	0
3	5	8	10	13	17	22	23	25	31	33	35	36	39	42	44	45	48	49	0
3	5	6	18	21	26	27	28	33	36	40	41	42	43	0
3	4	6	7	10	12	18	20	21	24	25	28	30	31	32	35	36	37	40	44	50	0
2	3	5	7	9	11	12	14	17	18	19	23	26	27	28	29	30	31	32	33	35	37	40	44	48	0
1	2	3	6	7	8	10	12	13	15	16	18	19	21	23	27	29	30	31	38	40	42	46	47	49	50	0
2	4	5	6	8	9	10	11	12	13	14	16	19	22	24	27	31	32	33	34	35	36	37	43	44	45	47	0
1	2	3	6	8	10	13	18	19	20	22	24	25	26	28	31	33	34	38	46	50	0
2	3	4	6	8	9	12	13	14	15	16	17	18	19	20	22	23	24	27	29	35	43	44	45	48	0
1	3	13	15	17	18	24	25	28	31	33	34	38	41	45	46	47	50	0
9	11	13	14	16	18	23	24	25	31	33	34	42	43	44	45	0
3	15	17	19	21	23	24	25	26	27	29	30	32	33	40	43	44	47	0
2	4	5	9	11	20	23	24	26	31	35	37	38	39	40	41	43	0
3	5	6	7	8	10	11	12	20	21	22	24	26	27	29	30	31	36	38	39	42	43	46	48	0
4	7	10	11	14	16	19	20	26	27	29	30	35	38	39	40	46	48	0
5	6	8	12	13	15	18	19	20	21	23	24	26	28	32	34	39	40	41	42	43	48	49	50	0
3	5	6	16	18	20	21	22	23	26	33	38	40	42	43	44	45	46	49	0
2	3	10	23	24	26	32	40	43	45	46	49	50	0
8	10	13	14	15	16	17	25	27	29	32	33	34	36	40	45	46	48	0
12	13	17	19	21	32	33	34	35	48	0
6	10	11	14	18	19	22	23	24	25	31	32	34	35	36	37	38	41	42	43	47	49	0
1	4	5	9	10	12	13	14	16	22	29	32	35	40	43	46	49	50	0
4	6	10	12	21	22	25	30	33	35	36	40	44	45	46	48	50	0
2	14	19	20	22	26	28	30	31	32	33	35	36	37	40	41	45	47	0
2	9	10	14	21	23	24	26	28	30	31	36	42	45	46	48	0
1	4	5	6	8	9	11	14	19	20	21	26	28	29	30	36	37	38	42	43	44	48	0
1	2	4	5	6	7	8	10	15	17	19	25	27	29	33	34	36	37	38	41	42	44	48	49	0
4	5	6	8	9	14	15	18	19	20	25	26	29	31	40	43	50	0
5	6	7	8	11	12	14	18	20	21	24	28	33	34	35	38	39	42	44	45	46	50	0
4	5	8	13	15	21	25	35	36	37	40	41	46	0
3	4	5	8	10	15	19	23	25	27	29	35	37	41	42	47	48	0


comments:
random graph
nodes 50
edges 488
rng seed 944 
